n_res = 4;
rc = [ 10, 11, 8, 10 ];
n_tasks = 30;
d = [ 4, 3, 10, 10, 2, 7, 7, 1, 10, 9, 9, 4, 6, 10, 2, 8, 3, 1, 7, 2, 3, 8, 4, 1, 2, 10, 2, 5, 1, 5 ];
rr = [| 6, 4, 2, 5, 0, 5, 0, 6, 0, 0, 0, 3, 8, 0, 0, 6, 0, 0, 7, 0, 0, 0, 0, 0, 0, 0, 0, 0, 0, 0
      | 0, 0, 0, 0, 4, 0, 0, 0, 2, 6, 0, 0, 0, 10, 4, 0, 0, 4, 0, 0, 3, 0, 0, 2, 0, 0, 0, 0, 9, 0
      | 0, 0, 0, 0, 0, 0, 8, 0, 0, 0, 0, 0, 0, 0, 0, 0, 2, 0, 0, 0, 0, 2, 1, 0, 5, 3, 0, 0, 0, 5
      | 0, 0, 0, 0, 0, 0, 0, 0, 0, 0, 9, 0, 0, 0, 0, 0, 0, 0, 0, 2, 0, 0, 0, 0, 0, 0, 10, 6, 0, 0 |];
suc = [ { 2 }, 
        { 3 }, 
        { 4 }, 
        { 5 }, 
        { 6 }, 
        { 7 }, 
        { 8 }, 
        { 9 }, 
        { 10 }, 
        { 11 }, 
        { 12 }, 
        { 13 }, 
        { 14 }, 
        { 15 }, 
        { 16 }, 
        { 17 }, 
        { 18 }, 
        { 19 }, 
        { 20 }, 
        { 21 }, 
        { 22 }, 
        { 23 }, 
        { 24 }, 
        { 25 }, 
        { 26 }, 
        { 27 }, 
        { 28 }, 
        { 29 }, 
        { 30 }, 
        {  }]; 
